param n := 2;

param m := 5;

param K := 500;

param a :=
1 	 0.711122
2 	 0.731800
;
 param A :=
[1, *, *]:  1	2	:=
1	0.818586	-0.500299	
2	-0.198253	-0.653140	

[2, *, *]:  1	2	:=
1	-0.761086	-0.706415	
2	0.625221	-0.471405	

[3, *, *]:  1	2	:=
1	0.638178	0.964835	
2	-0.378825	-0.466723	

[4, *, *]:  1	2	:=
1	0.067307	0.821546	
2	-0.371066	-0.266887	

[5, *, *]:  1	2	:=
1	-0.132815	0.877773	
2	0.024585	-0.938102	
;